Route #1: 31 46 35
Route #2: 93 75
Route #3: 28 42 78 65 25
Route #4: 71 62 99 98 89
Route #5: 40 88 67 44
Route #6: 81 51 83
Route #7: 5 12 58
Route #8: 8 17
Route #9: 15 22 41 20
Route #10: 69 16 55 76
Route #11: 3 77 63
Route #12: 74 13 4
Route #13: 82 60 59
Route #14: 21 56 94 80
Route #15: 38 47 26 48 96 64 34
Route #16: 1 70 54
Route #17: 92 9 86
Route #18: 52 91 50
Route #19: 87 37 6 49 14
Route #20: 24 95 73 53 33 32
Route #21: 30 85 11 79
Route #22: 27 97 19
Route #23: 100 61 23
Route #24: 7 2 45 43 29 36 72 57
Route #25: 39 10 18
Route #26: 66 84 90 68
Cost 27591.0000
Time 16.0006